100
150 150
1 118 335
2 116 334
3 115 874
4 111 882
5 110 204
6 109 262
7 109 903
8 108 954
9 105 886
10 104 749
11 104 512
12 104 717
13 101 181
14 101 867
15 101 944
16 100 547
17 99 186
18 99 459
19 98 359
20 97 641
21 96 897
22 95 608
23 95 328
24 92 838
25 92 29
26 92 560
27 92 91
28 90 214
29 89 184
30 87 16
31 87 421
32 87 751
33 86 875
34 86 880
35 85 176
36 85 375
37 84 802
38 83 235
39 83 579
40 83 993
41 82 473
42 82 432
43 81 78
44 81 299
45 80 171
46 79 278
47 78 903
48 78 905
49 75 48
50 74 883
51 74 992
52 73 160
53 73 148
54 73 458
55 72 985
56 71 449
57 70 524
58 70 279
59 69 600
60 69 86
61 68 976
62 68 952
63 67 437
64 67 261
65 64 302
66 63 435
67 62 688
68 61 796
69 60 821
70 60 762
71 60 155
72 56 858
73 56 9
74 53 31
75 53 887
76 52 432
77 50 862
78 50 855
79 49 542
80 48 898
81 48 593
82 47 838
83 47 254
84 46 832
85 46 542
86 44 938
87 42 347
88 41 393
89 39 780
90 38 273
91 38 891
92 37 213
93 37 293
94 37 170
95 35 842
96 34 95
97 33 144
98 32 633
99 31 660
100 31 708
